nK = 1788;
nT = 6;
nI = 14;
L = 29;
TT = 367;
np = 1;
nc = 3;
b = [39, 56, 70, 37, 32, 59, 50, 37, 36, 24, 30, 46, 57, 54];
d = [67, 97, 132, 99, 110, 139, 141, 72, 102, 69, 150, 127, 91, 126];
m = [1, 1.4, 2.1, 1.2, 1.3, 2.4, 2.1, 1.9, 1, 1.6, 2.1, 2, 2.4, 1.2];
pt = [0.27, 0.24, 0.22, 0.2, 0.21, 0.29];
st = [15.66, 13.68, 10.78, 9.4, 12.39, 11.6];
arc = {<1, 0, 1, 1, 0, 0, 0, [1, 1, 1, 1, 1, 1]>, <2, 1, 2, 1, 0, 0, 0, [1, 1, 1, 1, 1, 1]>, <3, 2, 3, 1, 0, 0, 0, [1, 1, 1, 1, 1, 1]>, <4, 3, 4, 1, 0, 0, 0, [1, 1, 1, 1, 1, 1]>, <5, 4, 5, 1, 0, 0, 0, [1, 1, 1, 1, 1, 1]>, <6, 5, 6, 1, 0, 0, 0, [1, 1, 1, 1, 1, 1]>, <7, 6, 7, 1, 0, 0, 0, [1, 1, 1, 1, 1, 1]>, <8, 7, 8, 1, 0, 0, 0, [1, 1, 1, 1, 1, 1]>, <9, 8, 9, 1, 0, 0, 0, [1, 1, 1, 1, 1, 1]>, <10, 9, 10, 1, 0, 0, 0, [1, 1, 1, 1, 1, 1]>, <11, 10, 11, 1, 0, 0, 0, [1, 1, 1, 1, 1, 1]>, <12, 11, 12, 1, 0, 0, 0, [1, 1, 1, 1, 1, 1]>, <13, 12, 13, 1, 0, 0, 0, [1, 1, 1, 1, 1, 1]>, <14, 13, 14, 1, 0, 0, 0, [1, 1, 1, 1, 1, 1]>, <15, 14, 15, 1, 0, 0, 0, [1, 1, 1, 1, 1, 1]>, <16, 15, 16, 1, 0, 0, 0, [1, 1, 1, 1, 1, 1]>, <17, 16, 17, 1, 0, 0, 0, [1, 1, 1, 1, 1, 1]>, <18, 17, 18, 1, 0, 0, 0, [1, 1, 1, 1, 1, 1]>, <19, 18, 19, 1, 0, 0, 0, [1, 1, 1, 1, 1, 1]>, <20, 19, 20, 1, 0, 0, 0, [1, 1, 1, 1, 1, 1]>, <21, 20, 21, 1, 0, 0, 0, [1, 1, 1, 1, 1, 1]>, <22, 21, 22, 1, 0, 0, 0, [1, 1, 1, 1, 1, 1]>, <23, 22, 23, 1, 0, 0, 0, [1, 1, 1, 1, 1, 1]>, <24, 23, 24, 1, 0, 0, 0, [1, 1, 1, 1, 1, 1]>, <25, 24, 25, 1, 0, 0, 0, [1, 1, 1, 1, 1, 1]>, <26, 25, 26, 1, 0, 0, 0, [1, 1, 1, 1, 1, 1]>, <27, 26, 27, 1, 0, 0, 0, [1, 1, 1, 1, 1, 1]>, <28, 27, 28, 1, 0, 0, 0, [1, 1, 1, 1, 1, 1]>, <29, 28, 29, 1, 0, 0, 0, [1, 1, 1, 1, 1, 1]>, <30, 0, 17, 17, 1, 0, 0, [0, 0, 1, 1, 1, 1]>, <31, 1, 18, 17, 1, 0, 0, [0, 0, 1, 1, 1, 1]>, <32, 2, 19, 17, 1, 0, 0, [0, 0, 1, 1, 1, 1]>, <33, 3, 20, 17, 1, 0, 0, [0, 0, 1, 1, 1, 1]>, <34, 4, 21, 17, 1, 0, 0, [0, 0, 1, 1, 1, 1]>, <35, 5, 22, 17, 1, 0, 0, [0, 0, 1, 1, 1, 1]>, <36, 6, 23, 17, 1, 0, 0, [0, 0, 1, 1, 1, 1]>, <37, 7, 24, 17, 1, 0, 0, [0, 0, 1, 1, 1, 1]>, <38, 8, 25, 17, 1, 0, 0, [0, 0, 1, 1, 1, 1]>, <39, 9, 26, 17, 1, 0, 0, [0, 0, 1, 1, 1, 1]>, <40, 10, 27, 17, 1, 0, 0, [0, 0, 1, 1, 1, 1]>, <41, 11, 28, 17, 1, 0, 0, [0, 0, 1, 1, 1, 1]>, <42, 12, 29, 17, 1, 0, 0, [0, 0, 1, 1, 1, 1]>, <43, 0, 14, 14, 2, 0, 0, [0, 0, 1, 1, 1, 1]>, <44, 1, 15, 14, 2, 0, 0, [0, 0, 1, 1, 1, 1]>, <45, 2, 16, 14, 2, 0, 0, [0, 0, 1, 1, 1, 1]>, <46, 3, 17, 14, 2, 0, 0, [0, 0, 1, 1, 1, 1]>, <47, 4, 18, 14, 2, 0, 0, [0, 0, 1, 1, 1, 1]>, <48, 5, 19, 14, 2, 0, 0, [0, 0, 1, 1, 1, 1]>, <49, 6, 20, 14, 2, 0, 0, [0, 0, 1, 1, 1, 1]>, <50, 7, 21, 14, 2, 0, 0, [0, 0, 1, 1, 1, 1]>, <51, 8, 22, 14, 2, 0, 0, [0, 0, 1, 1, 1, 1]>, <52, 9, 23, 14, 2, 0, 0, [0, 0, 1, 1, 1, 1]>, <53, 10, 24, 14, 2, 0, 0, [0, 0, 1, 1, 1, 1]>, <54, 11, 25, 14, 2, 0, 0, [0, 0, 1, 1, 1, 1]>, <55, 12, 26, 14, 2, 0, 0, [0, 0, 1, 1, 1, 1]>, <56, 13, 27, 14, 2, 0, 0, [0, 0, 1, 1, 1, 1]>, <57, 14, 28, 14, 2, 0, 0, [0, 0, 1, 1, 1, 1]>, <58, 15, 29, 14, 2, 0, 0, [0, 0, 1, 1, 1, 1]>, <59, 0, 17, 17, 3, 0, 0, [0, 0, 1, 1, 1, 1]>, <60, 1, 18, 17, 3, 0, 0, [0, 0, 1, 1, 1, 1]>, <61, 2, 19, 17, 3, 0, 0, [0, 0, 1, 1, 1, 1]>, <62, 3, 20, 17, 3, 0, 0, [0, 0, 1, 1, 1, 1]>, <63, 4, 21, 17, 3, 0, 0, [0, 0, 1, 1, 1, 1]>, <64, 5, 22, 17, 3, 0, 0, [0, 0, 1, 1, 1, 1]>, <65, 6, 23, 17, 3, 0, 0, [0, 0, 1, 1, 1, 1]>, <66, 7, 24, 17, 3, 0, 0, [0, 0, 1, 1, 1, 1]>, <67, 8, 25, 17, 3, 0, 0, [0, 0, 1, 1, 1, 1]>, <68, 9, 26, 17, 3, 0, 0, [0, 0, 1, 1, 1, 1]>, <69, 10, 27, 17, 3, 0, 0, [0, 0, 1, 1, 1, 1]>, <70, 11, 28, 17, 3, 0, 0, [0, 0, 1, 1, 1, 1]>, <71, 12, 29, 17, 3, 0, 0, [0, 0, 1, 1, 1, 1]>, <72, 0, 16, 16, 4, 1, 0, [0, 1, 1, 1, 1, 0]>, <73, 1, 17, 16, 4, 1, 0, [0, 1, 1, 1, 1, 0]>, <74, 2, 18, 16, 4, 1, 0, [0, 1, 1, 1, 1, 0]>, <75, 3, 19, 16, 4, 1, 0, [0, 1, 1, 1, 1, 0]>, <76, 4, 20, 16, 4, 1, 0, [0, 1, 1, 1, 1, 0]>, <77, 5, 21, 16, 4, 1, 0, [0, 1, 1, 1, 1, 0]>, <78, 6, 22, 16, 4, 1, 0, [0, 1, 1, 1, 1, 0]>, <79, 7, 23, 16, 4, 1, 0, [0, 1, 1, 1, 1, 0]>, <80, 8, 24, 16, 4, 1, 0, [0, 1, 1, 1, 1, 0]>, <81, 9, 25, 16, 4, 1, 0, [0, 1, 1, 1, 1, 0]>, <82, 10, 26, 16, 4, 1, 0, [0, 1, 1, 1, 1, 0]>, <83, 11, 27, 16, 4, 1, 0, [0, 1, 1, 1, 1, 0]>, <84, 12, 28, 16, 4, 1, 0, [0, 1, 1, 1, 1, 0]>, <85, 13, 29, 16, 4, 1, 0, [0, 1, 1, 1, 1, 0]>, <86, 0, 15, 15, 5, 0, 0, [1, 1, 1, 0, 0, 1]>, <87, 1, 16, 15, 5, 0, 0, [1, 1, 1, 0, 0, 1]>, <88, 2, 17, 15, 5, 0, 0, [1, 1, 1, 0, 0, 1]>, <89, 3, 18, 15, 5, 0, 0, [1, 1, 1, 0, 0, 1]>, <90, 4, 19, 15, 5, 0, 0, [1, 1, 1, 0, 0, 1]>, <91, 5, 20, 15, 5, 0, 0, [1, 1, 1, 0, 0, 1]>, <92, 6, 21, 15, 5, 0, 0, [1, 1, 1, 0, 0, 1]>, <93, 7, 22, 15, 5, 0, 0, [1, 1, 1, 0, 0, 1]>, <94, 8, 23, 15, 5, 0, 0, [1, 1, 1, 0, 0, 1]>, <95, 9, 24, 15, 5, 0, 0, [1, 1, 1, 0, 0, 1]>, <96, 10, 25, 15, 5, 0, 0, [1, 1, 1, 0, 0, 1]>, <97, 11, 26, 15, 5, 0, 0, [1, 1, 1, 0, 0, 1]>, <98, 12, 27, 15, 5, 0, 0, [1, 1, 1, 0, 0, 1]>, <99, 13, 28, 15, 5, 0, 0, [1, 1, 1, 0, 0, 1]>, <100, 14, 29, 15, 5, 0, 0, [1, 1, 1, 0, 0, 1]>, <101, 0, 18, 18, 6, 0, 0, [1, 0, 0, 1, 1, 1]>, <102, 1, 19, 18, 6, 0, 0, [1, 0, 0, 1, 1, 1]>, <103, 2, 20, 18, 6, 0, 0, [1, 0, 0, 1, 1, 1]>, <104, 3, 21, 18, 6, 0, 0, [1, 0, 0, 1, 1, 1]>, <105, 4, 22, 18, 6, 0, 0, [1, 0, 0, 1, 1, 1]>, <106, 5, 23, 18, 6, 0, 0, [1, 0, 0, 1, 1, 1]>, <107, 6, 24, 18, 6, 0, 0, [1, 0, 0, 1, 1, 1]>, <108, 7, 25, 18, 6, 0, 0, [1, 0, 0, 1, 1, 1]>, <109, 8, 26, 18, 6, 0, 0, [1, 0, 0, 1, 1, 1]>, <110, 9, 27, 18, 6, 0, 0, [1, 0, 0, 1, 1, 1]>, <111, 10, 28, 18, 6, 0, 0, [1, 0, 0, 1, 1, 1]>, <112, 11, 29, 18, 6, 0, 0, [1, 0, 0, 1, 1, 1]>, <113, 0, 14, 14, 7, 0, 0, [1, 1, 0, 0, 1, 1]>, <114, 1, 15, 14, 7, 0, 0, [1, 1, 0, 0, 1, 1]>, <115, 2, 16, 14, 7, 0, 0, [1, 1, 0, 0, 1, 1]>, <116, 3, 17, 14, 7, 0, 0, [1, 1, 0, 0, 1, 1]>, <117, 4, 18, 14, 7, 0, 0, [1, 1, 0, 0, 1, 1]>, <118, 5, 19, 14, 7, 0, 0, [1, 1, 0, 0, 1, 1]>, <119, 6, 20, 14, 7, 0, 0, [1, 1, 0, 0, 1, 1]>, <120, 7, 21, 14, 7, 0, 0, [1, 1, 0, 0, 1, 1]>, <121, 8, 22, 14, 7, 0, 0, [1, 1, 0, 0, 1, 1]>, <122, 9, 23, 14, 7, 0, 0, [1, 1, 0, 0, 1, 1]>, <123, 10, 24, 14, 7, 0, 0, [1, 1, 0, 0, 1, 1]>, <124, 11, 25, 14, 7, 0, 0, [1, 1, 0, 0, 1, 1]>, <125, 12, 26, 14, 7, 0, 0, [1, 1, 0, 0, 1, 1]>, <126, 13, 27, 14, 7, 0, 0, [1, 1, 0, 0, 1, 1]>, <127, 14, 28, 14, 7, 0, 0, [1, 1, 0, 0, 1, 1]>, <128, 15, 29, 14, 7, 0, 0, [1, 1, 0, 0, 1, 1]>, <129, 0, 15, 15, 8, 0, 1, [0, 1, 1, 1, 1, 0]>, <130, 1, 16, 15, 8, 0, 1, [0, 1, 1, 1, 1, 0]>, <131, 2, 17, 15, 8, 0, 1, [0, 1, 1, 1, 1, 0]>, <132, 3, 18, 15, 8, 0, 1, [0, 1, 1, 1, 1, 0]>, <133, 4, 19, 15, 8, 0, 1, [0, 1, 1, 1, 1, 0]>, <134, 5, 20, 15, 8, 0, 1, [0, 1, 1, 1, 1, 0]>, <135, 6, 21, 15, 8, 0, 1, [0, 1, 1, 1, 1, 0]>, <136, 7, 22, 15, 8, 0, 1, [0, 1, 1, 1, 1, 0]>, <137, 8, 23, 15, 8, 0, 1, [0, 1, 1, 1, 1, 0]>, <138, 9, 24, 15, 8, 0, 1, [0, 1, 1, 1, 1, 0]>, <139, 10, 25, 15, 8, 0, 1, [0, 1, 1, 1, 1, 0]>, <140, 11, 26, 15, 8, 0, 1, [0, 1, 1, 1, 1, 0]>, <141, 12, 27, 15, 8, 0, 1, [0, 1, 1, 1, 1, 0]>, <142, 13, 28, 15, 8, 0, 1, [0, 1, 1, 1, 1, 0]>, <143, 14, 29, 15, 8, 0, 1, [0, 1, 1, 1, 1, 0]>, <144, 0, 16, 16, 9, 0, 0, [0, 1, 1, 1, 1, 0]>, <145, 1, 17, 16, 9, 0, 0, [0, 1, 1, 1, 1, 0]>, <146, 2, 18, 16, 9, 0, 0, [0, 1, 1, 1, 1, 0]>, <147, 3, 19, 16, 9, 0, 0, [0, 1, 1, 1, 1, 0]>, <148, 4, 20, 16, 9, 0, 0, [0, 1, 1, 1, 1, 0]>, <149, 5, 21, 16, 9, 0, 0, [0, 1, 1, 1, 1, 0]>, <150, 6, 22, 16, 9, 0, 0, [0, 1, 1, 1, 1, 0]>, <151, 7, 23, 16, 9, 0, 0, [0, 1, 1, 1, 1, 0]>, <152, 8, 24, 16, 9, 0, 0, [0, 1, 1, 1, 1, 0]>, <153, 9, 25, 16, 9, 0, 0, [0, 1, 1, 1, 1, 0]>, <154, 10, 26, 16, 9, 0, 0, [0, 1, 1, 1, 1, 0]>, <155, 11, 27, 16, 9, 0, 0, [0, 1, 1, 1, 1, 0]>, <156, 12, 28, 16, 9, 0, 0, [0, 1, 1, 1, 1, 0]>, <157, 13, 29, 16, 9, 0, 0, [0, 1, 1, 1, 1, 0]>, <158, 0, 15, 15, 10, 0, 1, [0, 0, 1, 1, 1, 1]>, <159, 1, 16, 15, 10, 0, 1, [0, 0, 1, 1, 1, 1]>, <160, 2, 17, 15, 10, 0, 1, [0, 0, 1, 1, 1, 1]>, <161, 3, 18, 15, 10, 0, 1, [0, 0, 1, 1, 1, 1]>, <162, 4, 19, 15, 10, 0, 1, [0, 0, 1, 1, 1, 1]>, <163, 5, 20, 15, 10, 0, 1, [0, 0, 1, 1, 1, 1]>, <164, 6, 21, 15, 10, 0, 1, [0, 0, 1, 1, 1, 1]>, <165, 7, 22, 15, 10, 0, 1, [0, 0, 1, 1, 1, 1]>, <166, 8, 23, 15, 10, 0, 1, [0, 0, 1, 1, 1, 1]>, <167, 9, 24, 15, 10, 0, 1, [0, 0, 1, 1, 1, 1]>, <168, 10, 25, 15, 10, 0, 1, [0, 0, 1, 1, 1, 1]>, <169, 11, 26, 15, 10, 0, 1, [0, 0, 1, 1, 1, 1]>, <170, 12, 27, 15, 10, 0, 1, [0, 0, 1, 1, 1, 1]>, <171, 13, 28, 15, 10, 0, 1, [0, 0, 1, 1, 1, 1]>, <172, 14, 29, 15, 10, 0, 1, [0, 0, 1, 1, 1, 1]>, <173, 0, 14, 14, 11, 0, 0, [1, 1, 1, 0, 0, 1]>, <174, 1, 15, 14, 11, 0, 0, [1, 1, 1, 0, 0, 1]>, <175, 2, 16, 14, 11, 0, 0, [1, 1, 1, 0, 0, 1]>, <176, 3, 17, 14, 11, 0, 0, [1, 1, 1, 0, 0, 1]>, <177, 4, 18, 14, 11, 0, 0, [1, 1, 1, 0, 0, 1]>, <178, 5, 19, 14, 11, 0, 0, [1, 1, 1, 0, 0, 1]>, <179, 6, 20, 14, 11, 0, 0, [1, 1, 1, 0, 0, 1]>, <180, 7, 21, 14, 11, 0, 0, [1, 1, 1, 0, 0, 1]>, <181, 8, 22, 14, 11, 0, 0, [1, 1, 1, 0, 0, 1]>, <182, 9, 23, 14, 11, 0, 0, [1, 1, 1, 0, 0, 1]>, <183, 10, 24, 14, 11, 0, 0, [1, 1, 1, 0, 0, 1]>, <184, 11, 25, 14, 11, 0, 0, [1, 1, 1, 0, 0, 1]>, <185, 12, 26, 14, 11, 0, 0, [1, 1, 1, 0, 0, 1]>, <186, 13, 27, 14, 11, 0, 0, [1, 1, 1, 0, 0, 1]>, <187, 14, 28, 14, 11, 0, 0, [1, 1, 1, 0, 0, 1]>, <188, 15, 29, 14, 11, 0, 0, [1, 1, 1, 0, 0, 1]>, <189, 0, 15, 15, 12, 0, 0, [1, 1, 1, 1, 0, 0]>, <190, 1, 16, 15, 12, 0, 0, [1, 1, 1, 1, 0, 0]>, <191, 2, 17, 15, 12, 0, 0, [1, 1, 1, 1, 0, 0]>, <192, 3, 18, 15, 12, 0, 0, [1, 1, 1, 1, 0, 0]>, <193, 4, 19, 15, 12, 0, 0, [1, 1, 1, 1, 0, 0]>, <194, 5, 20, 15, 12, 0, 0, [1, 1, 1, 1, 0, 0]>, <195, 6, 21, 15, 12, 0, 0, [1, 1, 1, 1, 0, 0]>, <196, 7, 22, 15, 12, 0, 0, [1, 1, 1, 1, 0, 0]>, <197, 8, 23, 15, 12, 0, 0, [1, 1, 1, 1, 0, 0]>, <198, 9, 24, 15, 12, 0, 0, [1, 1, 1, 1, 0, 0]>, <199, 10, 25, 15, 12, 0, 0, [1, 1, 1, 1, 0, 0]>, <200, 11, 26, 15, 12, 0, 0, [1, 1, 1, 1, 0, 0]>, <201, 12, 27, 15, 12, 0, 0, [1, 1, 1, 1, 0, 0]>, <202, 13, 28, 15, 12, 0, 0, [1, 1, 1, 1, 0, 0]>, <203, 14, 29, 15, 12, 0, 0, [1, 1, 1, 1, 0, 0]>, <204, 0, 14, 14, 13, 0, 1, [1, 1, 0, 0, 1, 1]>, <205, 1, 15, 14, 13, 0, 1, [1, 1, 0, 0, 1, 1]>, <206, 2, 16, 14, 13, 0, 1, [1, 1, 0, 0, 1, 1]>, <207, 3, 17, 14, 13, 0, 1, [1, 1, 0, 0, 1, 1]>, <208, 4, 18, 14, 13, 0, 1, [1, 1, 0, 0, 1, 1]>, <209, 5, 19, 14, 13, 0, 1, [1, 1, 0, 0, 1, 1]>, <210, 6, 20, 14, 13, 0, 1, [1, 1, 0, 0, 1, 1]>, <211, 7, 21, 14, 13, 0, 1, [1, 1, 0, 0, 1, 1]>, <212, 8, 22, 14, 13, 0, 1, [1, 1, 0, 0, 1, 1]>, <213, 9, 23, 14, 13, 0, 1, [1, 1, 0, 0, 1, 1]>, <214, 10, 24, 14, 13, 0, 1, [1, 1, 0, 0, 1, 1]>, <215, 11, 25, 14, 13, 0, 1, [1, 1, 0, 0, 1, 1]>, <216, 12, 26, 14, 13, 0, 1, [1, 1, 0, 0, 1, 1]>, <217, 13, 27, 14, 13, 0, 1, [1, 1, 0, 0, 1, 1]>, <218, 14, 28, 14, 13, 0, 1, [1, 1, 0, 0, 1, 1]>, <219, 15, 29, 14, 13, 0, 1, [1, 1, 0, 0, 1, 1]>, <220, 0, 14, 14, 14, 0, 1, [0, 0, 1, 1, 1, 1]>, <221, 1, 15, 14, 14, 0, 1, [0, 0, 1, 1, 1, 1]>, <222, 2, 16, 14, 14, 0, 1, [0, 0, 1, 1, 1, 1]>, <223, 3, 17, 14, 14, 0, 1, [0, 0, 1, 1, 1, 1]>, <224, 4, 18, 14, 14, 0, 1, [0, 0, 1, 1, 1, 1]>, <225, 5, 19, 14, 14, 0, 1, [0, 0, 1, 1, 1, 1]>, <226, 6, 20, 14, 14, 0, 1, [0, 0, 1, 1, 1, 1]>, <227, 7, 21, 14, 14, 0, 1, [0, 0, 1, 1, 1, 1]>, <228, 8, 22, 14, 14, 0, 1, [0, 0, 1, 1, 1, 1]>, <229, 9, 23, 14, 14, 0, 1, [0, 0, 1, 1, 1, 1]>, <230, 10, 24, 14, 14, 0, 1, [0, 0, 1, 1, 1, 1]>, <231, 11, 25, 14, 14, 0, 1, [0, 0, 1, 1, 1, 1]>, <232, 12, 26, 14, 14, 0, 1, [0, 0, 1, 1, 1, 1]>, <233, 13, 27, 14, 14, 0, 1, [0, 0, 1, 1, 1, 1]>, <234, 14, 28, 14, 14, 0, 1, [0, 0, 1, 1, 1, 1]>, <235, 15, 29, 14, 14, 0, 1, [0, 0, 1, 1, 1, 1]>};
